(declare-fun e () String)
(declare-fun c () String)
(declare-fun g () String)
(declare-fun d () String)
(declare-fun f () String)
(declare-fun a () String)
(declare-fun h () String)
(assert (= (str.++ a "baeb") (str.++ "c" g g h)))
(assert (= (str.++ "cg" d h) (str.++ f "h" e)))
(assert (= (str.++ "cd" c "d" d) "a"))

(check-sat)
